\* Source Pyomo model name=Scheduler *\

min 
x1:
+2000 x2
+2000 x3
+2000 x4
+2000 x5
+2000 x6
+2000 x7
+2000 x8
+2000 x9
+2000 x10
+2000 x11
+20000000 x12
+20000000 x13
+20000000 x14
+20000000 x15
+20000000 x16
+20000000 x17
+20000000 x18
+20000000 x19
+20000000 x20
+20000000 x21

s.t.

c_u_x22_:
+1 x23
+1 x24
+1 x25
+1 x26
+1 x27
+1 x28
+1 x29
+1 x30
+1 x31
+1 x32
<= 1

c_u_x33_:
+1 x34
+1 x35
+1 x36
+1 x37
+1 x38
+1 x39
+1 x40
+1 x41
+1 x42
+1 x43
<= 1

c_u_x44_:
+1 x45
+1 x46
+1 x47
+1 x48
+1 x49
+1 x50
+1 x51
+1 x52
+1 x53
+1 x54
<= 1

c_u_x55_:
+1 x56
+1 x57
+1 x58
+1 x59
+1 x60
+1 x61
+1 x62
+1 x63
+1 x64
+1 x65
<= 1

c_u_x66_:
+1 x67
+1 x68
+1 x69
+1 x70
+1 x71
+1 x72
+1 x73
+1 x74
+1 x75
+1 x76
<= 1

c_u_x77_:
+1 x12
+1 x78
+1 x79
<= 1

c_u_x80_:
+1 x13
+1 x81
+1 x82
<= 1

c_l_x83_:
-1 x14
>= -1

c_u_x84_:
+1 x15
+1 x85
<= 1

c_u_x86_:
+1 x16
+1 x87
<= 1

c_u_x88_:
+1 x17
+1 x89
+1 x90
+1 x91
<= 1

c_u_x92_:
+1 x18
+1 x93
<= 1

c_u_x94_:
+1 x19
+1 x95
<= 1

c_u_x96_:
+1 x20
+1 x97
<= 1

c_u_x98_:
+1 x21
+1 x99
<= 1

c_e_x100_:
+1 x12
+1 x23
+1 x34
+1 x45
+1 x56
+1 x67
+1 x81
+1 x89
= 1

c_e_x101_:
+1 x13
+1 x24
+1 x35
+1 x46
+1 x57
+1 x68
+1 x90
= 1

c_e_x102_:
+1 x14
+1 x25
+1 x36
+1 x47
+1 x58
+1 x69
+1 x78
= 1

c_e_x103_:
+1 x15
+1 x26
+1 x37
+1 x48
+1 x59
+1 x70
+1 x87
= 1

c_e_x104_:
+1 x16
+1 x27
+1 x38
+1 x49
+1 x60
+1 x71
+1 x85
+1 x91
+1 x99
= 1

c_e_x105_:
+1 x17
+1 x28
+1 x39
+1 x50
+1 x61
+1 x72
+1 x82
+1 x93
= 1

c_e_x106_:
+1 x18
+1 x29
+1 x40
+1 x51
+1 x62
+1 x73
= 1

c_e_x107_:
+1 x19
+1 x30
+1 x41
+1 x52
+1 x63
+1 x74
+1 x97
= 1

c_e_x108_:
+1 x20
+1 x31
+1 x42
+1 x53
+1 x64
+1 x75
= 1

c_e_x109_:
+1 x21
+1 x32
+1 x43
+1 x54
+1 x65
+1 x76
+1 x79
+1 x95
= 1

c_u_x110_:
+1 x3
-1 x7
+100000 x82
<= 95987.39440261091

c_u_x111_:
+1 x5
-1 x6
+100000 x85
<= 93700.49193810679

c_u_x112_:
-1 x5
+1 x6
+100000 x87
<= 92674.4880274972

c_u_x113_:
-1 x3
+1 x7
+100000 x90
<= 96202.8255007839

c_u_x114_:
-1 x2
+3096.052772790804 x23
+4343.390893373715 x34
+2335.3865642046385 x45
+4952.671644000066 x56
+7169.095929137701 x67
<= 0

c_u_x115_:
-1 x3
+3530.206117927034 x24
+3902.3028192656006 x35
+2948.9005541846786 x46
+4214.194637267273 x57
+6373.473059882504 x68
<= 0

c_u_x116_:
-1 x4
+5638.041484163448 x25
+2669.815556682206 x36
+6091.402809146115 x47
+1673.6073454469924 x58
+662.0014789556258 x69
<= 0

c_u_x117_:
-1 x5
+5021.865599831659 x26
+3879.0822437043103 x37
+5860.893125822962 x48
+4644.037252798157 x59
+4794.558272658101 x70
<= 0

c_u_x118_:
-1 x6
+1825.6203970586039 x27
+2859.214950103565 x38
+1389.0496682506775 x49
+3712.793426146009 x60
+5930.972882859428 x71
<= 0

c_u_x119_:
-1 x7
+3457.177487990023 x28
+6001.771077378905 x39
+2680.53530458494 x50
+6997.135414184264 x61
+9203.586733075721 x72
<= 0

c_u_x120_:
-1 x8
+5999.342109950183 x29
+3100.93642500876 x40
+6291.423603739483 x51
+1712.701385320753 x62
+1239.3496897918023 x73
<= 0

c_u_x121_:
-1 x9
+3728.0737363004755 x30
+1436.0733947127699 x41
+3886.779822276883 x52
+1028.691302462807 x63
+3215.0559593608714 x74
<= 0

c_u_x122_:
-1 x10
+5832.988518868619 x31
+2857.8950084865473 x42
+6240.885533523043 x53
+1696.8959021005583 x64
+538.9657632355177 x75
<= 0

c_u_x123_:
-1 x11
+5861.634324357322 x32
+3081.893987317854 x43
+6451.372855600653 x54
+2587.5447985027427 x65
+1438.018178989333 x76
<= 0

c_u_x124_:
+1 x82
+1 x90
<= 1

c_u_x125_:
+1 x85
+1 x87
<= 1

c_u_x126_:
+1 x81
+1 x82
+1 x89
+1 x90
<= 2

c_u_x127_:
+1 x82
+1 x90
+1 x91
<= 2

c_u_x128_:
+1 x82
+1 x90
+1 x93
<= 2

c_u_x129_:
+1 x85
+1 x87
+1 x91
<= 2

c_u_x130_:
+1 x85
+1 x87
+1 x99
<= 2

c_u_x131_:
+1 x78
+1 x81
+1 x82
+1 x89
+1 x90
<= 3

c_u_x132_:
+1 x81
+1 x82
+1 x89
+1 x90
<= 3

c_u_x133_:
+1 x81
+1 x82
+1 x89
+1 x90
+1 x91
<= 3

c_u_x134_:
+1 x81
+1 x82
+1 x89
+1 x90
+1 x93
<= 3

c_u_x135_:
+1 x81
+1 x82
+1 x89
+1 x90
<= 3

c_u_x136_:
+1 x81
+1 x82
+1 x89
+1 x90
<= 3

c_u_x137_:
+1 x79
+1 x81
+1 x82
+1 x89
+1 x90
<= 3

c_u_x138_:
+1 x85
+1 x87
+1 x89
+1 x91
<= 3

c_u_x139_:
+1 x79
+1 x85
+1 x87
+1 x99
<= 3

c_u_x140_:
+1 x79
+1 x89
+1 x91
+1 x99
<= 3

c_u_x141_:
+1 x82
+1 x85
+1 x87
+1 x90
+1 x91
<= 3

c_u_x142_:
+1 x82
+1 x90
+1 x91
+1 x93
<= 3

c_u_x143_:
+1 x82
+1 x90
+1 x91
+1 x99
<= 3

c_u_x144_:
+1 x85
+1 x87
+1 x91
+1 x93
<= 3

c_u_x145_:
+1 x85
+1 x87
+1 x91
+1 x99
<= 3

c_u_x146_:
+1 x85
+1 x87
+1 x95
+1 x99
<= 3

c_u_x147_:
+1 x78
+1 x81
+1 x82
+1 x89
+1 x90
<= 4

c_u_x148_:
+1 x78
+1 x81
+1 x82
+1 x89
+1 x90
+1 x91
<= 4

c_u_x149_:
+1 x78
+1 x81
+1 x82
+1 x89
+1 x90
+1 x93
<= 4

c_u_x150_:
+1 x78
+1 x81
+1 x82
+1 x89
+1 x90
<= 4

c_u_x151_:
+1 x78
+1 x81
+1 x82
+1 x89
+1 x90
<= 4

c_u_x152_:
+1 x78
+1 x79
+1 x81
+1 x82
+1 x89
+1 x90
<= 4

c_u_x153_:
+1 x81
+1 x82
+1 x85
+1 x87
+1 x89
+1 x90
+1 x91
<= 4

c_u_x154_:
+1 x79
+1 x81
+1 x85
+1 x87
+1 x99
<= 4

c_u_x155_:
+1 x81
+1 x82
+1 x89
+1 x90
+1 x93
<= 4

c_u_x156_:
+1 x79
+1 x81
+1 x82
+1 x89
+1 x90
<= 4

c_u_x157_:
+1 x81
+1 x82
+1 x89
+1 x90
+1 x91
+1 x93
<= 4

c_u_x158_:
+1 x81
+1 x82
+1 x89
+1 x90
+1 x91
<= 4

c_u_x159_:
+1 x81
+1 x82
+1 x89
+1 x90
+1 x91
<= 4

c_u_x160_:
+1 x79
+1 x81
+1 x82
+1 x89
+1 x90
+1 x91
+1 x99
<= 4

c_u_x161_:
+1 x81
+1 x82
+1 x89
+1 x90
+1 x93
<= 4

c_u_x162_:
+1 x81
+1 x82
+1 x89
+1 x90
+1 x93
<= 4

c_u_x163_:
+1 x79
+1 x81
+1 x82
+1 x89
+1 x90
+1 x93
<= 4

c_u_x164_:
+1 x81
+1 x82
+1 x89
+1 x90
+1 x97
<= 4

c_u_x165_:
+1 x79
+1 x81
+1 x82
+1 x89
+1 x90
+1 x95
<= 4

c_u_x166_:
+1 x79
+1 x81
+1 x82
+1 x89
+1 x90
<= 4

c_u_x167_:
+1 x78
+1 x85
+1 x87
+1 x89
+1 x91
<= 4

c_u_x168_:
+1 x78
+1 x79
+1 x85
+1 x87
+1 x99
<= 4

c_u_x169_:
+1 x78
+1 x79
+1 x89
+1 x91
+1 x99
<= 4

c_u_x170_:
+1 x85
+1 x87
+1 x89
+1 x91
+1 x93
<= 4

c_u_x171_:
+1 x79
+1 x85
+1 x87
+1 x89
+1 x91
+1 x99
<= 4

c_u_x172_:
+1 x79
+1 x85
+1 x87
+1 x95
+1 x99
<= 4

c_u_x173_:
+1 x79
+1 x89
+1 x91
+1 x93
+1 x99
<= 4

c_u_x174_:
+1 x79
+1 x89
+1 x91
+1 x95
+1 x99
<= 4

c_u_x175_:
+1 x82
+1 x85
+1 x87
+1 x90
+1 x91
<= 4

c_u_x176_:
+1 x82
+1 x85
+1 x87
+1 x90
+1 x91
+1 x93
<= 4

c_u_x177_:
+1 x82
+1 x85
+1 x87
+1 x90
+1 x91
<= 4

c_u_x178_:
+1 x82
+1 x85
+1 x87
+1 x90
+1 x91
<= 4

c_u_x179_:
+1 x82
+1 x85
+1 x87
+1 x90
+1 x91
+1 x99
<= 4

c_u_x180_:
+1 x82
+1 x90
+1 x91
+1 x93
+1 x99
<= 4

c_u_x181_:
+1 x82
+1 x90
+1 x91
+1 x95
+1 x99
<= 4

c_u_x182_:
+1 x85
+1 x87
+1 x91
+1 x93
+1 x99
<= 4

c_u_x183_:
+1 x85
+1 x87
+1 x91
+1 x95
+1 x99
<= 4

c_u_x184_:
+1 x85
+1 x87
+1 x95
+1 x97
+1 x99
<= 4

c_u_x185_:
+1 x78
+1 x81
+1 x82
+1 x85
+1 x87
+1 x89
+1 x90
+1 x91
<= 5

c_u_x186_:
+1 x78
+1 x79
+1 x81
+1 x85
+1 x87
+1 x99
<= 5

c_u_x187_:
+1 x78
+1 x81
+1 x82
+1 x89
+1 x90
+1 x93
<= 5

c_u_x188_:
+1 x78
+1 x79
+1 x81
+1 x82
+1 x89
+1 x90
<= 5

c_u_x189_:
+1 x78
+1 x81
+1 x82
+1 x89
+1 x90
+1 x91
+1 x93
<= 5

c_u_x190_:
+1 x78
+1 x81
+1 x82
+1 x89
+1 x90
+1 x91
<= 5

c_u_x191_:
+1 x78
+1 x81
+1 x82
+1 x89
+1 x90
+1 x91
<= 5

c_u_x192_:
+1 x78
+1 x79
+1 x81
+1 x82
+1 x89
+1 x90
+1 x91
+1 x99
<= 5

c_u_x193_:
+1 x78
+1 x81
+1 x82
+1 x89
+1 x90
+1 x93
<= 5

c_u_x194_:
+1 x78
+1 x81
+1 x82
+1 x89
+1 x90
+1 x93
<= 5

c_u_x195_:
+1 x78
+1 x79
+1 x81
+1 x82
+1 x89
+1 x90
+1 x93
<= 5

c_u_x196_:
+1 x78
+1 x81
+1 x82
+1 x89
+1 x90
+1 x97
<= 5

c_u_x197_:
+1 x78
+1 x79
+1 x81
+1 x82
+1 x89
+1 x90
+1 x95
<= 5

c_u_x198_:
+1 x78
+1 x79
+1 x81
+1 x82
+1 x89
+1 x90
<= 5

c_u_x199_:
+1 x81
+1 x82
+1 x85
+1 x87
+1 x89
+1 x90
+1 x91
+1 x93
<= 5

c_u_x200_:
+1 x81
+1 x82
+1 x85
+1 x87
+1 x89
+1 x90
+1 x91
<= 5

c_u_x201_:
+1 x81
+1 x82
+1 x85
+1 x87
+1 x89
+1 x90
+1 x91
<= 5

c_u_x202_:
+1 x79
+1 x81
+1 x82
+1 x85
+1 x87
+1 x89
+1 x90
+1 x91
+1 x99
<= 5

c_u_x203_:
+1 x79
+1 x81
+1 x85
+1 x87
+1 x95
+1 x99
<= 5

c_u_x204_:
+1 x79
+1 x81
+1 x82
+1 x89
+1 x90
+1 x93
<= 5

c_u_x205_:
+1 x79
+1 x81
+1 x82
+1 x89
+1 x90
+1 x95
<= 5

c_u_x206_:
+1 x81
+1 x82
+1 x89
+1 x90
+1 x91
+1 x93
<= 5

c_u_x207_:
+1 x81
+1 x82
+1 x89
+1 x90
+1 x91
+1 x93
<= 5

c_u_x208_:
+1 x79
+1 x81
+1 x82
+1 x89
+1 x90
+1 x91
+1 x93
+1 x99
<= 5

c_u_x209_:
+1 x81
+1 x82
+1 x89
+1 x90
+1 x91
+1 x97
<= 5

c_u_x210_:
+1 x79
+1 x81
+1 x82
+1 x89
+1 x90
+1 x91
+1 x95
+1 x99
<= 5

c_u_x211_:
+1 x79
+1 x81
+1 x82
+1 x89
+1 x90
+1 x91
+1 x99
<= 5

c_u_x212_:
+1 x81
+1 x82
+1 x89
+1 x90
+1 x93
+1 x97
<= 5

c_u_x213_:
+1 x79
+1 x81
+1 x82
+1 x89
+1 x90
+1 x93
+1 x95
<= 5

c_u_x214_:
+1 x79
+1 x81
+1 x82
+1 x89
+1 x90
+1 x93
<= 5

c_u_x215_:
+1 x79
+1 x81
+1 x82
+1 x89
+1 x90
+1 x95
+1 x97
<= 5

c_u_x216_:
+1 x78
+1 x85
+1 x87
+1 x89
+1 x91
+1 x93
<= 5

c_u_x217_:
+1 x78
+1 x79
+1 x85
+1 x87
+1 x89
+1 x91
+1 x99
<= 5

c_u_x218_:
+1 x78
+1 x79
+1 x85
+1 x87
+1 x95
+1 x99
<= 5

c_u_x219_:
+1 x78
+1 x79
+1 x89
+1 x91
+1 x93
+1 x99
<= 5

c_u_x220_:
+1 x78
+1 x79
+1 x89
+1 x91
+1 x95
+1 x99
<= 5

c_u_x221_:
+1 x79
+1 x85
+1 x87
+1 x89
+1 x91
+1 x93
+1 x99
<= 5

c_u_x222_:
+1 x79
+1 x85
+1 x87
+1 x89
+1 x91
+1 x95
+1 x99
<= 5

c_u_x223_:
+1 x79
+1 x85
+1 x87
+1 x89
+1 x91
+1 x99
<= 5

c_u_x224_:
+1 x79
+1 x85
+1 x87
+1 x95
+1 x97
+1 x99
<= 5

c_u_x225_:
+1 x79
+1 x89
+1 x91
+1 x93
+1 x95
+1 x99
<= 5

c_u_x226_:
+1 x79
+1 x89
+1 x91
+1 x95
+1 x97
+1 x99
<= 5

c_u_x227_:
+1 x82
+1 x85
+1 x87
+1 x90
+1 x91
+1 x93
<= 5

c_u_x228_:
+1 x82
+1 x85
+1 x87
+1 x90
+1 x91
+1 x99
<= 5

c_u_x229_:
+1 x82
+1 x85
+1 x87
+1 x90
+1 x91
+1 x93
<= 5

c_u_x230_:
+1 x82
+1 x85
+1 x87
+1 x90
+1 x91
+1 x93
<= 5

c_u_x231_:
+1 x82
+1 x85
+1 x87
+1 x90
+1 x91
+1 x93
+1 x99
<= 5

c_u_x232_:
+1 x82
+1 x85
+1 x87
+1 x90
+1 x91
+1 x97
<= 5

c_u_x233_:
+1 x82
+1 x85
+1 x87
+1 x90
+1 x91
+1 x95
+1 x99
<= 5

c_u_x234_:
+1 x82
+1 x85
+1 x87
+1 x90
+1 x91
+1 x99
<= 5

c_u_x235_:
+1 x82
+1 x90
+1 x91
+1 x93
+1 x95
+1 x99
<= 5

c_u_x236_:
+1 x82
+1 x90
+1 x91
+1 x95
+1 x97
+1 x99
<= 5

c_u_x237_:
+1 x85
+1 x87
+1 x91
+1 x93
+1 x95
+1 x99
<= 5

c_u_x238_:
+1 x85
+1 x87
+1 x91
+1 x95
+1 x97
+1 x99
<= 5

c_u_x239_:
+1 x78
+1 x81
+1 x82
+1 x85
+1 x87
+1 x89
+1 x90
+1 x91
+1 x93
<= 6

c_u_x240_:
+1 x78
+1 x81
+1 x82
+1 x85
+1 x87
+1 x89
+1 x90
+1 x91
<= 6

c_u_x241_:
+1 x78
+1 x81
+1 x82
+1 x85
+1 x87
+1 x89
+1 x90
+1 x91
<= 6

c_u_x242_:
+1 x78
+1 x79
+1 x81
+1 x82
+1 x85
+1 x87
+1 x89
+1 x90
+1 x91
+1 x99
<= 6

c_u_x243_:
+1 x78
+1 x79
+1 x81
+1 x85
+1 x87
+1 x95
+1 x99
<= 6

c_u_x244_:
+1 x78
+1 x79
+1 x81
+1 x82
+1 x89
+1 x90
+1 x93
<= 6

c_u_x245_:
+1 x78
+1 x79
+1 x81
+1 x82
+1 x89
+1 x90
+1 x95
<= 6

c_u_x246_:
+1 x78
+1 x81
+1 x82
+1 x89
+1 x90
+1 x91
+1 x93
<= 6

c_u_x247_:
+1 x78
+1 x81
+1 x82
+1 x89
+1 x90
+1 x91
+1 x93
<= 6

c_u_x248_:
+1 x78
+1 x79
+1 x81
+1 x82
+1 x89
+1 x90
+1 x91
+1 x93
+1 x99
<= 6

c_u_x249_:
+1 x78
+1 x81
+1 x82
+1 x89
+1 x90
+1 x91
+1 x97
<= 6

c_u_x250_:
+1 x78
+1 x79
+1 x81
+1 x82
+1 x89
+1 x90
+1 x91
+1 x95
+1 x99
<= 6

c_u_x251_:
+1 x78
+1 x79
+1 x81
+1 x82
+1 x89
+1 x90
+1 x91
+1 x99
<= 6

c_u_x252_:
+1 x78
+1 x81
+1 x82
+1 x89
+1 x90
+1 x93
+1 x97
<= 6

c_u_x253_:
+1 x78
+1 x79
+1 x81
+1 x82
+1 x89
+1 x90
+1 x93
+1 x95
<= 6

c_u_x254_:
+1 x78
+1 x79
+1 x81
+1 x82
+1 x89
+1 x90
+1 x93
<= 6

c_u_x255_:
+1 x78
+1 x79
+1 x81
+1 x82
+1 x89
+1 x90
+1 x95
+1 x97
<= 6

c_u_x256_:
+1 x81
+1 x82
+1 x85
+1 x87
+1 x89
+1 x90
+1 x91
+1 x93
<= 6

c_u_x257_:
+1 x81
+1 x82
+1 x85
+1 x87
+1 x89
+1 x90
+1 x91
+1 x93
<= 6

c_u_x258_:
+1 x79
+1 x81
+1 x82
+1 x85
+1 x87
+1 x89
+1 x90
+1 x91
+1 x93
+1 x99
<= 6

c_u_x259_:
+1 x81
+1 x82
+1 x85
+1 x87
+1 x89
+1 x90
+1 x91
+1 x97
<= 6

c_u_x260_:
+1 x79
+1 x81
+1 x82
+1 x85
+1 x87
+1 x89
+1 x90
+1 x91
+1 x95
+1 x99
<= 6

c_u_x261_:
+1 x79
+1 x81
+1 x82
+1 x85
+1 x87
+1 x89
+1 x90
+1 x91
+1 x99
<= 6

c_u_x262_:
+1 x79
+1 x81
+1 x85
+1 x87
+1 x95
+1 x97
+1 x99
<= 6

c_u_x263_:
+1 x79
+1 x81
+1 x82
+1 x89
+1 x90
+1 x93
+1 x95
<= 6

c_u_x264_:
+1 x79
+1 x81
+1 x82
+1 x89
+1 x90
+1 x95
+1 x97
<= 6

c_u_x265_:
+1 x81
+1 x82
+1 x89
+1 x90
+1 x91
+1 x93
+1 x97
<= 6

c_u_x266_:
+1 x79
+1 x81
+1 x82
+1 x89
+1 x90
+1 x91
+1 x93
+1 x95
+1 x99
<= 6

c_u_x267_:
+1 x79
+1 x81
+1 x82
+1 x89
+1 x90
+1 x91
+1 x93
+1 x99
<= 6

c_u_x268_:
+1 x79
+1 x81
+1 x82
+1 x89
+1 x90
+1 x91
+1 x95
+1 x97
+1 x99
<= 6

c_u_x269_:
+1 x79
+1 x81
+1 x82
+1 x89
+1 x90
+1 x93
+1 x95
+1 x97
<= 6

c_u_x270_:
+1 x78
+1 x79
+1 x85
+1 x87
+1 x89
+1 x91
+1 x93
+1 x99
<= 6

c_u_x271_:
+1 x78
+1 x79
+1 x85
+1 x87
+1 x89
+1 x91
+1 x95
+1 x99
<= 6

c_u_x272_:
+1 x78
+1 x79
+1 x85
+1 x87
+1 x89
+1 x91
+1 x99
<= 6

c_u_x273_:
+1 x78
+1 x79
+1 x85
+1 x87
+1 x95
+1 x97
+1 x99
<= 6

c_u_x274_:
+1 x78
+1 x79
+1 x89
+1 x91
+1 x93
+1 x95
+1 x99
<= 6

c_u_x275_:
+1 x78
+1 x79
+1 x89
+1 x91
+1 x95
+1 x97
+1 x99
<= 6

c_u_x276_:
+1 x79
+1 x85
+1 x87
+1 x89
+1 x91
+1 x93
+1 x95
+1 x99
<= 6

c_u_x277_:
+1 x79
+1 x85
+1 x87
+1 x89
+1 x91
+1 x93
+1 x99
<= 6

c_u_x278_:
+1 x79
+1 x85
+1 x87
+1 x89
+1 x91
+1 x95
+1 x97
+1 x99
<= 6

c_u_x279_:
+1 x79
+1 x89
+1 x91
+1 x93
+1 x95
+1 x97
+1 x99
<= 6

c_u_x280_:
+1 x82
+1 x85
+1 x87
+1 x90
+1 x91
+1 x93
+1 x99
<= 6

c_u_x281_:
+1 x82
+1 x85
+1 x87
+1 x90
+1 x91
+1 x95
+1 x99
<= 6

c_u_x282_:
+1 x82
+1 x85
+1 x87
+1 x90
+1 x91
+1 x93
+1 x97
<= 6

c_u_x283_:
+1 x82
+1 x85
+1 x87
+1 x90
+1 x91
+1 x93
+1 x95
+1 x99
<= 6

c_u_x284_:
+1 x82
+1 x85
+1 x87
+1 x90
+1 x91
+1 x93
+1 x99
<= 6

c_u_x285_:
+1 x82
+1 x85
+1 x87
+1 x90
+1 x91
+1 x95
+1 x97
+1 x99
<= 6

c_u_x286_:
+1 x82
+1 x90
+1 x91
+1 x93
+1 x95
+1 x97
+1 x99
<= 6

c_u_x287_:
+1 x85
+1 x87
+1 x91
+1 x93
+1 x95
+1 x97
+1 x99
<= 6

c_u_x288_:
+1 x78
+1 x81
+1 x82
+1 x85
+1 x87
+1 x89
+1 x90
+1 x91
+1 x93
<= 7

c_u_x289_:
+1 x78
+1 x81
+1 x82
+1 x85
+1 x87
+1 x89
+1 x90
+1 x91
+1 x93
<= 7

c_u_x290_:
+1 x78
+1 x79
+1 x81
+1 x82
+1 x85
+1 x87
+1 x89
+1 x90
+1 x91
+1 x93
+1 x99
<= 7

c_u_x291_:
+1 x78
+1 x81
+1 x82
+1 x85
+1 x87
+1 x89
+1 x90
+1 x91
+1 x97
<= 7

c_u_x292_:
+1 x78
+1 x79
+1 x81
+1 x82
+1 x85
+1 x87
+1 x89
+1 x90
+1 x91
+1 x95
+1 x99
<= 7

c_u_x293_:
+1 x78
+1 x79
+1 x81
+1 x82
+1 x85
+1 x87
+1 x89
+1 x90
+1 x91
+1 x99
<= 7

c_u_x294_:
+1 x78
+1 x79
+1 x81
+1 x85
+1 x87
+1 x95
+1 x97
+1 x99
<= 7

c_u_x295_:
+1 x78
+1 x79
+1 x81
+1 x82
+1 x89
+1 x90
+1 x93
+1 x95
<= 7

c_u_x296_:
+1 x78
+1 x79
+1 x81
+1 x82
+1 x89
+1 x90
+1 x95
+1 x97
<= 7

c_u_x297_:
+1 x78
+1 x81
+1 x82
+1 x89
+1 x90
+1 x91
+1 x93
+1 x97
<= 7

c_u_x298_:
+1 x78
+1 x79
+1 x81
+1 x82
+1 x89
+1 x90
+1 x91
+1 x93
+1 x95
+1 x99
<= 7

c_u_x299_:
+1 x78
+1 x79
+1 x81
+1 x82
+1 x89
+1 x90
+1 x91
+1 x93
+1 x99
<= 7

c_u_x300_:
+1 x78
+1 x79
+1 x81
+1 x82
+1 x89
+1 x90
+1 x91
+1 x95
+1 x97
+1 x99
<= 7

c_u_x301_:
+1 x78
+1 x79
+1 x81
+1 x82
+1 x89
+1 x90
+1 x93
+1 x95
+1 x97
<= 7

c_u_x302_:
+1 x81
+1 x82
+1 x85
+1 x87
+1 x89
+1 x90
+1 x91
+1 x93
+1 x97
<= 7

c_u_x303_:
+1 x79
+1 x81
+1 x82
+1 x85
+1 x87
+1 x89
+1 x90
+1 x91
+1 x93
+1 x95
+1 x99
<= 7

c_u_x304_:
+1 x79
+1 x81
+1 x82
+1 x85
+1 x87
+1 x89
+1 x90
+1 x91
+1 x93
+1 x99
<= 7

c_u_x305_:
+1 x79
+1 x81
+1 x82
+1 x85
+1 x87
+1 x89
+1 x90
+1 x91
+1 x95
+1 x97
+1 x99
<= 7

c_u_x306_:
+1 x79
+1 x81
+1 x82
+1 x89
+1 x90
+1 x93
+1 x95
+1 x97
<= 7

c_u_x307_:
+1 x79
+1 x81
+1 x82
+1 x89
+1 x90
+1 x91
+1 x93
+1 x95
+1 x97
+1 x99
<= 7

c_u_x308_:
+1 x78
+1 x79
+1 x85
+1 x87
+1 x89
+1 x91
+1 x93
+1 x95
+1 x99
<= 7

c_u_x309_:
+1 x78
+1 x79
+1 x85
+1 x87
+1 x89
+1 x91
+1 x93
+1 x99
<= 7

c_u_x310_:
+1 x78
+1 x79
+1 x85
+1 x87
+1 x89
+1 x91
+1 x95
+1 x97
+1 x99
<= 7

c_u_x311_:
+1 x78
+1 x79
+1 x89
+1 x91
+1 x93
+1 x95
+1 x97
+1 x99
<= 7

c_u_x312_:
+1 x79
+1 x85
+1 x87
+1 x89
+1 x91
+1 x93
+1 x95
+1 x97
+1 x99
<= 7

c_u_x313_:
+1 x82
+1 x85
+1 x87
+1 x90
+1 x91
+1 x93
+1 x95
+1 x99
<= 7

c_u_x314_:
+1 x82
+1 x85
+1 x87
+1 x90
+1 x91
+1 x95
+1 x97
+1 x99
<= 7

c_u_x315_:
+1 x82
+1 x85
+1 x87
+1 x90
+1 x91
+1 x93
+1 x95
+1 x97
+1 x99
<= 7

c_u_x316_:
+1 x78
+1 x81
+1 x82
+1 x85
+1 x87
+1 x89
+1 x90
+1 x91
+1 x93
+1 x97
<= 8

c_u_x317_:
+1 x78
+1 x79
+1 x81
+1 x82
+1 x85
+1 x87
+1 x89
+1 x90
+1 x91
+1 x93
+1 x95
+1 x99
<= 8

c_u_x318_:
+1 x78
+1 x79
+1 x81
+1 x82
+1 x85
+1 x87
+1 x89
+1 x90
+1 x91
+1 x93
+1 x99
<= 8

c_u_x319_:
+1 x78
+1 x79
+1 x81
+1 x82
+1 x85
+1 x87
+1 x89
+1 x90
+1 x91
+1 x95
+1 x97
+1 x99
<= 8

c_u_x320_:
+1 x78
+1 x79
+1 x81
+1 x82
+1 x89
+1 x90
+1 x93
+1 x95
+1 x97
<= 8

c_u_x321_:
+1 x78
+1 x79
+1 x81
+1 x82
+1 x89
+1 x90
+1 x91
+1 x93
+1 x95
+1 x97
+1 x99
<= 8

c_u_x322_:
+1 x79
+1 x81
+1 x82
+1 x85
+1 x87
+1 x89
+1 x90
+1 x91
+1 x93
+1 x95
+1 x97
+1 x99
<= 8

c_u_x323_:
+1 x78
+1 x79
+1 x85
+1 x87
+1 x89
+1 x91
+1 x93
+1 x95
+1 x97
+1 x99
<= 8

c_u_x324_:
+1 x82
+1 x85
+1 x87
+1 x90
+1 x91
+1 x93
+1 x95
+1 x97
+1 x99
<= 8

c_u_x325_:
+1 x78
+1 x79
+1 x81
+1 x82
+1 x85
+1 x87
+1 x89
+1 x90
+1 x91
+1 x93
+1 x95
+1 x97
+1 x99
<= 9

bounds
   0 <= x2 <= +inf
   0 <= x3 <= +inf
   0 <= x4 <= +inf
   0 <= x5 <= +inf
   0 <= x6 <= +inf
   0 <= x7 <= +inf
   0 <= x8 <= +inf
   0 <= x9 <= +inf
   0 <= x10 <= +inf
   0 <= x11 <= +inf
   0 <= x12 <= 1
   0 <= x13 <= 1
   0 <= x14 <= 1
   0 <= x15 <= 1
   0 <= x16 <= 1
   0 <= x17 <= 1
   0 <= x18 <= 1
   0 <= x19 <= 1
   0 <= x20 <= 1
   0 <= x21 <= 1
   0 <= x23 <= 1
   0 <= x24 <= 1
   0 <= x25 <= 1
   0 <= x26 <= 1
   0 <= x27 <= 1
   0 <= x28 <= 1
   0 <= x29 <= 1
   0 <= x30 <= 1
   0 <= x31 <= 1
   0 <= x32 <= 1
   0 <= x34 <= 1
   0 <= x35 <= 1
   0 <= x36 <= 1
   0 <= x37 <= 1
   0 <= x38 <= 1
   0 <= x39 <= 1
   0 <= x40 <= 1
   0 <= x41 <= 1
   0 <= x42 <= 1
   0 <= x43 <= 1
   0 <= x45 <= 1
   0 <= x46 <= 1
   0 <= x47 <= 1
   0 <= x48 <= 1
   0 <= x49 <= 1
   0 <= x50 <= 1
   0 <= x51 <= 1
   0 <= x52 <= 1
   0 <= x53 <= 1
   0 <= x54 <= 1
   0 <= x56 <= 1
   0 <= x57 <= 1
   0 <= x58 <= 1
   0 <= x59 <= 1
   0 <= x60 <= 1
   0 <= x61 <= 1
   0 <= x62 <= 1
   0 <= x63 <= 1
   0 <= x64 <= 1
   0 <= x65 <= 1
   0 <= x67 <= 1
   0 <= x68 <= 1
   0 <= x69 <= 1
   0 <= x70 <= 1
   0 <= x71 <= 1
   0 <= x72 <= 1
   0 <= x73 <= 1
   0 <= x74 <= 1
   0 <= x75 <= 1
   0 <= x76 <= 1
   0 <= x78 <= 1
   0 <= x79 <= 1
   0 <= x81 <= 1
   0 <= x82 <= 1
   0 <= x85 <= 1
   0 <= x87 <= 1
   0 <= x89 <= 1
   0 <= x90 <= 1
   0 <= x91 <= 1
   0 <= x93 <= 1
   0 <= x95 <= 1
   0 <= x97 <= 1
   0 <= x99 <= 1
general
  x2
  x3
  x4
  x5
  x6
  x7
  x8
  x9
  x10
  x11
binary
  x12
  x13
  x14
  x15
  x16
  x17
  x18
  x19
  x20
  x21
  x23
  x24
  x25
  x26
  x27
  x28
  x29
  x30
  x31
  x32
  x34
  x35
  x36
  x37
  x38
  x39
  x40
  x41
  x42
  x43
  x45
  x46
  x47
  x48
  x49
  x50
  x51
  x52
  x53
  x54
  x56
  x57
  x58
  x59
  x60
  x61
  x62
  x63
  x64
  x65
  x67
  x68
  x69
  x70
  x71
  x72
  x73
  x74
  x75
  x76
  x78
  x79
  x81
  x82
  x85
  x87
  x89
  x90
  x91
  x93
  x95
  x97
  x99
end
